minimize
obj: 1 x_machine1,sugar,1_ + 100 y_machine1,sugar,1_ + 4 x_machine1,sugar,2_ + 200 y_machine1,sugar,2_ + 3 x_machine1,sugar,3_ + 300 y_machine1,sugar,3_ + 4 x_machine1,sugar,4_ + 100 y_machine1,sugar,4_ + 1 x_machine1,sugar,5_ + 100 y_machine1,sugar,5_ + 2 x_machine1,sugar,6_ + 100 y_machine1,sugar,6_ + 1 x_machine1,sugar,7_ + 100 y_machine1,sugar,7_ + 4 x_machine1,sugar,8_ + 100 y_machine1,sugar,8_ + 4 x_machine1,sugar,9_ + 300 y_machine1,sugar,9_ + 3 x_machine1,sugar,10_ + 300 y_machine1,sugar,10_ + 1 x_machine1,sugar,11_ + 200 y_machine1,sugar,11_ + 1 x_machine1,sugar,12_ + 100 y_machine1,sugar,12_ + 1 x_machine1,salt,1_ + 200 y_machine1,salt,1_ + 4 x_machine1,salt,2_ + 200 y_machine1,salt,2_ + 3 x_machine1,salt,3_ + 200 y_machine1,salt,3_ + 1 x_machine1,salt,4_ + 100 y_machine1,salt,4_ + 4 x_machine1,salt,5_ + 100 y_machine1,salt,5_ + 2 x_machine1,salt,6_ + 300 y_machine1,salt,6_ + 4 x_machine1,salt,7_ + 300 y_machine1,salt,7_ + 1 x_machine1,salt,8_ + 100 y_machine1,salt,8_ + 3 x_machine1,salt,9_ + 200 y_machine1,salt,9_ + 4 x_machine1,salt,10_ + 300 y_machine1,salt,10_ + 2 x_machine1,salt,11_ + 200 y_machine1,salt,11_ + 3 x_machine1,salt,12_ + 200 y_machine1,salt,12_ + 1 x_machine1,pepper,1_ + 100 y_machine1,pepper,1_ + 4 x_machine1,pepper,2_ + 300 y_machine1,pepper,2_ + 3 x_machine1,pepper,3_ + 100 y_machine1,pepper,3_ + 2 x_machine1,pepper,4_ + 300 y_machine1,pepper,4_ + 4 x_machine1,pepper,5_ + 300 y_machine1,pepper,5_ + 2 x_machine1,pepper,6_ + 100 y_machine1,pepper,6_ + 4 x_machine1,pepper,7_ + 200 y_machine1,pepper,7_ + 3 x_machine1,pepper,8_ + 300 y_machine1,pepper,8_ + 4 x_machine1,pepper,9_ + 100 y_machine1,pepper,9_ + 1 x_machine1,pepper,10_ + 300 y_machine1,pepper,10_ + 4 x_machine1,pepper,11_ + 100 y_machine1,pepper,11_ + 4 x_machine1,pepper,12_ + 200 y_machine1,pepper,12_ + 4 x_machine1,oil,1_ + 100 y_machine1,oil,1_ + 3 x_machine1,oil,2_ + 100 y_machine1,oil,2_ + 2 x_machine1,oil,3_ + 100 y_machine1,oil,3_ + 2 x_machine1,oil,4_ + 200 y_machine1,oil,4_ + 3 x_machine1,oil,5_ + 200 y_machine1,oil,5_ + 3 x_machine1,oil,6_ + 200 y_machine1,oil,6_ + 4 x_machine1,oil,7_ + 300 y_machine1,oil,7_ + 1 x_machine1,oil,8_ + 200 y_machine1,oil,8_ + 3 x_machine1,oil,9_ + 300 y_machine1,oil,9_ + 2 x_machine1,oil,10_ + 300 y_machine1,oil,10_ + 1 x_machine1,oil,11_ + 200 y_machine1,oil,11_ + 1 x_machine1,oil,12_ + 100 y_machine1,oil,12_ + 1 x_machine2,sugar,1_ + 100 y_machine2,sugar,1_ + 4 x_machine2,sugar,2_ + 200 y_machine2,sugar,2_ + 3 x_machine2,sugar,3_ + 300 y_machine2,sugar,3_ + 4 x_machine2,sugar,4_ + 100 y_machine2,sugar,4_ + 1 x_machine2,sugar,5_ + 100 y_machine2,sugar,5_ + 2 x_machine2,sugar,6_ + 100 y_machine2,sugar,6_ + 1 x_machine2,sugar,7_ + 100 y_machine2,sugar,7_ + 4 x_machine2,sugar,8_ + 100 y_machine2,sugar,8_ + 4 x_machine2,sugar,9_ + 300 y_machine2,sugar,9_ + 3 x_machine2,sugar,10_ + 300 y_machine2,sugar,10_ + 1 x_machine2,sugar,11_ + 200 y_machine2,sugar,11_ + 1 x_machine2,sugar,12_ + 100 y_machine2,sugar,12_ + 1 x_machine2,salt,1_ + 200 y_machine2,salt,1_ + 4 x_machine2,salt,2_ + 200 y_machine2,salt,2_ + 3 x_machine2,salt,3_ + 200 y_machine2,salt,3_ + 1 x_machine2,salt,4_ + 100 y_machine2,salt,4_ + 4 x_machine2,salt,5_ + 100 y_machine2,salt,5_ + 2 x_machine2,salt,6_ + 300 y_machine2,salt,6_ + 4 x_machine2,salt,7_ + 300 y_machine2,salt,7_ + 1 x_machine2,salt,8_ + 100 y_machine2,salt,8_ + 3 x_machine2,salt,9_ + 200 y_machine2,salt,9_ + 4 x_machine2,salt,10_ + 300 y_machine2,salt,10_ + 2 x_machine2,salt,11_ + 200 y_machine2,salt,11_ + 3 x_machine2,salt,12_ + 200 y_machine2,salt,12_ + 1 x_machine2,pepper,1_ + 100 y_machine2,pepper,1_ + 4 x_machine2,pepper,2_ + 300 y_machine2,pepper,2_ + 3 x_machine2,pepper,3_ + 100 y_machine2,pepper,3_ + 2 x_machine2,pepper,4_ + 300 y_machine2,pepper,4_ + 4 x_machine2,pepper,5_ + 300 y_machine2,pepper,5_ + 2 x_machine2,pepper,6_ + 100 y_machine2,pepper,6_ + 4 x_machine2,pepper,7_ + 200 y_machine2,pepper,7_ + 3 x_machine2,pepper,8_ + 300 y_machine2,pepper,8_ + 4 x_machine2,pepper,9_ + 100 y_machine2,pepper,9_ + 1 x_machine2,pepper,10_ + 300 y_machine2,pepper,10_ + 4 x_machine2,pepper,11_ + 100 y_machine2,pepper,11_ + 4 x_machine2,pepper,12_ + 200 y_machine2,pepper,12_ + 4 x_machine2,oil,1_ + 100 y_machine2,oil,1_ + 3 x_machine2,oil,2_ + 100 y_machine2,oil,2_ + 2 x_machine2,oil,3_ + 100 y_machine2,oil,3_ + 2 x_machine2,oil,4_ + 200 y_machine2,oil,4_ + 3 x_machine2,oil,5_ + 200 y_machine2,oil,5_ + 3 x_machine2,oil,6_ + 200 y_machine2,oil,6_ + 4 x_machine2,oil,7_ + 300 y_machine2,oil,7_ + 1 x_machine2,oil,8_ + 200 y_machine2,oil,8_ + 3 x_machine2,oil,9_ + 300 y_machine2,oil,9_ + 2 x_machine2,oil,10_ + 300 y_machine2,oil,10_ + 1 x_machine2,oil,11_ + 200 y_machine2,oil,11_ + 1 x_machine2,oil,12_ + 100 y_machine2,oil,12_ + 1 x_machine3,sugar,1_ + 100 y_machine3,sugar,1_ + 4 x_machine3,sugar,2_ + 200 y_machine3,sugar,2_ + 3 x_machine3,sugar,3_ + 300 y_machine3,sugar,3_ + 4 x_machine3,sugar,4_ + 100 y_machine3,sugar,4_ + 1 x_machine3,sugar,5_ + 100 y_machine3,sugar,5_ + 2 x_machine3,sugar,6_ + 100 y_machine3,sugar,6_ + 1 x_machine3,sugar,7_ + 100 y_machine3,sugar,7_ + 4 x_machine3,sugar,8_ + 100 y_machine3,sugar,8_ + 4 x_machine3,sugar,9_ + 300 y_machine3,sugar,9_ + 3 x_machine3,sugar,10_ + 300 y_machine3,sugar,10_ + 1 x_machine3,sugar,11_ + 200 y_machine3,sugar,11_ + 1 x_machine3,sugar,12_ + 100 y_machine3,sugar,12_ + 1 x_machine3,salt,1_ + 200 y_machine3,salt,1_ + 4 x_machine3,salt,2_ + 200 y_machine3,salt,2_ + 3 x_machine3,salt,3_ + 200 y_machine3,salt,3_ + 1 x_machine3,salt,4_ + 100 y_machine3,salt,4_ + 4 x_machine3,salt,5_ + 100 y_machine3,salt,5_ + 2 x_machine3,salt,6_ + 300 y_machine3,salt,6_ + 4 x_machine3,salt,7_ + 300 y_machine3,salt,7_ + 1 x_machine3,salt,8_ + 100 y_machine3,salt,8_ + 3 x_machine3,salt,9_ + 200 y_machine3,salt,9_ + 4 x_machine3,salt,10_ + 300 y_machine3,salt,10_ + 2 x_machine3,salt,11_ + 200 y_machine3,salt,11_ + 3 x_machine3,salt,12_ + 200 y_machine3,salt,12_ + 1 x_machine3,pepper,1_ + 100 y_machine3,pepper,1_ + 4 x_machine3,pepper,2_ + 300 y_machine3,pepper,2_ + 3 x_machine3,pepper,3_ + 100 y_machine3,pepper,3_ + 2 x_machine3,pepper,4_ + 300 y_machine3,pepper,4_ + 4 x_machine3,pepper,5_ + 300 y_machine3,pepper,5_ + 2 x_machine3,pepper,6_ + 100 y_machine3,pepper,6_ + 4 x_machine3,pepper,7_ + 200 y_machine3,pepper,7_ + 3 x_machine3,pepper,8_ + 300 y_machine3,pepper,8_ + 4 x_machine3,pepper,9_ + 100 y_machine3,pepper,9_ + 1 x_machine3,pepper,10_ + 300 y_machine3,pepper,10_ + 4 x_machine3,pepper,11_ + 100 y_machine3,pepper,11_ + 4 x_machine3,pepper,12_ + 200 y_machine3,pepper,12_ + 4 x_machine3,oil,1_ + 100 y_machine3,oil,1_ + 3 x_machine3,oil,2_ + 100 y_machine3,oil,2_ + 2 x_machine3,oil,3_ + 100 y_machine3,oil,3_ + 2 x_machine3,oil,4_ + 200 y_machine3,oil,4_ + 3 x_machine3,oil,5_ + 200 y_machine3,oil,5_ + 3 x_machine3,oil,6_ + 200 y_machine3,oil,6_ + 4 x_machine3,oil,7_ + 300 y_machine3,oil,7_ + 1 x_machine3,oil,8_ + 200 y_machine3,oil,8_ + 3 x_machine3,oil,9_ + 300 y_machine3,oil,9_ + 2 x_machine3,oil,10_ + 300 y_machine3,oil,10_ + 1 x_machine3,oil,11_ + 200 y_machine3,oil,11_ + 1 x_machine3,oil,12_ + 100 y_machine3,oil,12_ + 2.5 s_sugar,1_ + 2.5 s_sugar,2_ + 1 s_sugar,3_ + 1.5 s_sugar,4_ + 2 s_sugar,5_ + 1 s_sugar,6_ + 3 s_sugar,7_ + 1 s_sugar,8_ + 2.5 s_sugar,9_ + 1 s_sugar,10_ + 0.5 s_sugar,11_ + 1 s_sugar,12_ + 0.5 s_salt,1_ + 3 s_salt,2_ + 0.5 s_salt,3_ + 0.5 s_salt,4_ + 3 s_salt,5_ + 2.5 s_salt,6_ + 3 s_salt,7_ + 0.5 s_salt,8_ + 0.5 s_salt,9_ + 2 s_salt,10_ + 2 s_salt,11_ + 1 s_salt,12_ + 0.5 s_pepper,1_ + 1 s_pepper,2_ + 1 s_pepper,3_ + 2.5 s_pepper,4_ + 2 s_pepper,5_ + 3 s_pepper,6_ + 2.5 s_pepper,7_ + 1 s_pepper,8_ + 1.5 s_pepper,9_ + 3 s_pepper,10_ + 1 s_pepper,11_ + 1 s_pepper,12_ + 0.5 s_oil,1_ + 2.5 s_oil,2_ + 2 s_oil,3_ + 3 s_oil,4_ + 1 s_oil,5_ + 3 s_oil,6_ + 0.5 s_oil,7_ + 3 s_oil,8_ + 1 s_oil,9_ + 1 s_oil,10_ + 2 s_oil,11_ + 3 s_oil,12_
subject to
c1_1: 1 s_sugar,1_ + 1 s_salt,1_ + 1 s_pepper,1_ + 1 s_oil,1_ <= 20
c2_1: 1 s_sugar,2_ + 1 s_salt,2_ + 1 s_pepper,2_ + 1 s_oil,2_ <= 20
c3_1: 1 s_sugar,3_ + 1 s_salt,3_ + 1 s_pepper,3_ + 1 s_oil,3_ <= 20
c4_1: 1 s_sugar,4_ + 1 s_salt,4_ + 1 s_pepper,4_ + 1 s_oil,4_ <= 20
c5_1: 1 s_sugar,5_ + 1 s_salt,5_ + 1 s_pepper,5_ + 1 s_oil,5_ <= 20
c6_1: 1 s_sugar,6_ + 1 s_salt,6_ + 1 s_pepper,6_ + 1 s_oil,6_ <= 20
c7_1: 1 s_sugar,7_ + 1 s_salt,7_ + 1 s_pepper,7_ + 1 s_oil,7_ <= 20
c8_1: 1 s_sugar,8_ + 1 s_salt,8_ + 1 s_pepper,8_ + 1 s_oil,8_ <= 20
c9_1: 1 s_sugar,9_ + 1 s_salt,9_ + 1 s_pepper,9_ + 1 s_oil,9_ <= 20
c10_1: 1 s_sugar,10_ + 1 s_salt,10_ + 1 s_pepper,10_ + 1 s_oil,10_ <= 20
c11_1: 1 s_sugar,11_ + 1 s_salt,11_ + 1 s_pepper,11_ + 1 s_oil,11_ <= 20
c12_1: 1 s_sugar,12_ + 1 s_salt,12_ + 1 s_pepper,12_ + 1 s_oil,12_ <= 20
c13_1: 1 x_machine1,sugar,1_ - 10 y_machine1,sugar,1_ <= 0
c14_1: 1 x_machine2,sugar,1_ - 10 y_machine2,sugar,1_ <= 0
c15_1: 1 x_machine3,sugar,1_ - 10 y_machine3,sugar,1_ <= 0
c16_1: 1 x_machine1,salt,1_ - 10 y_machine1,salt,1_ <= 0
c17_1: 1 x_machine2,salt,1_ - 10 y_machine2,salt,1_ <= 0
c18_1: 1 x_machine3,salt,1_ - 10 y_machine3,salt,1_ <= 0
c19_1: 1 x_machine1,pepper,1_ - 10 y_machine1,pepper,1_ <= 0
c20_1: 1 x_machine2,pepper,1_ - 10 y_machine2,pepper,1_ <= 0
c21_1: 1 x_machine3,pepper,1_ - 10 y_machine3,pepper,1_ <= 0
c22_1: 1 x_machine1,oil,1_ - 10 y_machine1,oil,1_ <= 0
c23_1: 1 x_machine2,oil,1_ - 10 y_machine2,oil,1_ <= 0
c24_1: 1 x_machine3,oil,1_ - 10 y_machine3,oil,1_ <= 0
c25_1: 1 x_machine1,sugar,2_ - 10 y_machine1,sugar,2_ <= 0
c26_1: 1 x_machine2,sugar,2_ - 10 y_machine2,sugar,2_ <= 0
c27_1: 1 x_machine3,sugar,2_ - 10 y_machine3,sugar,2_ <= 0
c28_1: 1 x_machine1,salt,2_ - 10 y_machine1,salt,2_ <= 0
c29_1: 1 x_machine2,salt,2_ - 10 y_machine2,salt,2_ <= 0
c30_1: 1 x_machine3,salt,2_ - 10 y_machine3,salt,2_ <= 0
c31_1: 1 x_machine1,pepper,2_ - 10 y_machine1,pepper,2_ <= 0
c32_1: 1 x_machine2,pepper,2_ - 10 y_machine2,pepper,2_ <= 0
c33_1: 1 x_machine3,pepper,2_ - 10 y_machine3,pepper,2_ <= 0
c34_1: 1 x_machine1,oil,2_ - 10 y_machine1,oil,2_ <= 0
c35_1: 1 x_machine2,oil,2_ - 10 y_machine2,oil,2_ <= 0
c36_1: 1 x_machine3,oil,2_ - 10 y_machine3,oil,2_ <= 0
c37_1: 1 x_machine1,sugar,3_ - 10 y_machine1,sugar,3_ <= 0
c38_1: 1 x_machine2,sugar,3_ - 10 y_machine2,sugar,3_ <= 0
c39_1: 1 x_machine3,sugar,3_ - 10 y_machine3,sugar,3_ <= 0
c40_1: 1 x_machine1,salt,3_ - 10 y_machine1,salt,3_ <= 0
c41_1: 1 x_machine2,salt,3_ - 10 y_machine2,salt,3_ <= 0
c42_1: 1 x_machine3,salt,3_ - 10 y_machine3,salt,3_ <= 0
c43_1: 1 x_machine1,pepper,3_ - 10 y_machine1,pepper,3_ <= 0
c44_1: 1 x_machine2,pepper,3_ - 10 y_machine2,pepper,3_ <= 0
c45_1: 1 x_machine3,pepper,3_ - 10 y_machine3,pepper,3_ <= 0
c46_1: 1 x_machine1,oil,3_ - 10 y_machine1,oil,3_ <= 0
c47_1: 1 x_machine2,oil,3_ - 10 y_machine2,oil,3_ <= 0
c48_1: 1 x_machine3,oil,3_ - 10 y_machine3,oil,3_ <= 0
c49_1: 1 x_machine1,sugar,4_ - 10 y_machine1,sugar,4_ <= 0
c50_1: 1 x_machine2,sugar,4_ - 10 y_machine2,sugar,4_ <= 0
c51_1: 1 x_machine3,sugar,4_ - 10 y_machine3,sugar,4_ <= 0
c52_1: 1 x_machine1,salt,4_ - 10 y_machine1,salt,4_ <= 0
c53: 1 x_machine2,salt,4_ - 10 y_machine2,salt,4_ <= 0
c54: 1 x_machine3,salt,4_ - 10 y_machine3,salt,4_ <= 0
c55: 1 x_machine1,pepper,4_ - 10 y_machine1,pepper,4_ <= 0
c56: 1 x_machine2,pepper,4_ - 10 y_machine2,pepper,4_ <= 0
c57: 1 x_machine3,pepper,4_ - 10 y_machine3,pepper,4_ <= 0
c58: 1 x_machine1,oil,4_ - 10 y_machine1,oil,4_ <= 0
c59: 1 x_machine2,oil,4_ - 10 y_machine2,oil,4_ <= 0
c60: 1 x_machine3,oil,4_ - 10 y_machine3,oil,4_ <= 0
c61: 1 x_machine1,sugar,5_ - 10 y_machine1,sugar,5_ <= 0
c62: 1 x_machine2,sugar,5_ - 10 y_machine2,sugar,5_ <= 0
c63: 1 x_machine3,sugar,5_ - 10 y_machine3,sugar,5_ <= 0
c64: 1 x_machine1,salt,5_ - 10 y_machine1,salt,5_ <= 0
c65: 1 x_machine2,salt,5_ - 10 y_machine2,salt,5_ <= 0
c66: 1 x_machine3,salt,5_ - 10 y_machine3,salt,5_ <= 0
c67: 1 x_machine1,pepper,5_ - 10 y_machine1,pepper,5_ <= 0
c68: 1 x_machine2,pepper,5_ - 10 y_machine2,pepper,5_ <= 0
c69: 1 x_machine3,pepper,5_ - 10 y_machine3,pepper,5_ <= 0
c70: 1 x_machine1,oil,5_ - 10 y_machine1,oil,5_ <= 0
c71: 1 x_machine2,oil,5_ - 10 y_machine2,oil,5_ <= 0
c72: 1 x_machine3,oil,5_ - 10 y_machine3,oil,5_ <= 0
c73: 1 x_machine1,sugar,6_ - 10 y_machine1,sugar,6_ <= 0
c74: 1 x_machine2,sugar,6_ - 10 y_machine2,sugar,6_ <= 0
c75: 1 x_machine3,sugar,6_ - 10 y_machine3,sugar,6_ <= 0
c76: 1 x_machine1,salt,6_ - 10 y_machine1,salt,6_ <= 0
c77: 1 x_machine2,salt,6_ - 10 y_machine2,salt,6_ <= 0
c78: 1 x_machine3,salt,6_ - 10 y_machine3,salt,6_ <= 0
c79: 1 x_machine1,pepper,6_ - 10 y_machine1,pepper,6_ <= 0
c80: 1 x_machine2,pepper,6_ - 10 y_machine2,pepper,6_ <= 0
c81: 1 x_machine3,pepper,6_ - 10 y_machine3,pepper,6_ <= 0
c82: 1 x_machine1,oil,6_ - 10 y_machine1,oil,6_ <= 0
c83: 1 x_machine2,oil,6_ - 10 y_machine2,oil,6_ <= 0
c84: 1 x_machine3,oil,6_ - 10 y_machine3,oil,6_ <= 0
c85: 1 x_machine1,sugar,7_ - 10 y_machine1,sugar,7_ <= 0
c86: 1 x_machine2,sugar,7_ - 10 y_machine2,sugar,7_ <= 0
c87: 1 x_machine3,sugar,7_ - 10 y_machine3,sugar,7_ <= 0
c88: 1 x_machine1,salt,7_ - 10 y_machine1,salt,7_ <= 0
c89: 1 x_machine2,salt,7_ - 10 y_machine2,salt,7_ <= 0
c90: 1 x_machine3,salt,7_ - 10 y_machine3,salt,7_ <= 0
c91: 1 x_machine1,pepper,7_ - 10 y_machine1,pepper,7_ <= 0
c92: 1 x_machine2,pepper,7_ - 10 y_machine2,pepper,7_ <= 0
c93: 1 x_machine3,pepper,7_ - 10 y_machine3,pepper,7_ <= 0
c94: 1 x_machine1,oil,7_ - 10 y_machine1,oil,7_ <= 0
c95: 1 x_machine2,oil,7_ - 10 y_machine2,oil,7_ <= 0
c96: 1 x_machine3,oil,7_ - 10 y_machine3,oil,7_ <= 0
c97: 1 x_machine1,sugar,8_ - 10 y_machine1,sugar,8_ <= 0
c98: 1 x_machine2,sugar,8_ - 10 y_machine2,sugar,8_ <= 0
c99: 1 x_machine3,sugar,8_ - 10 y_machine3,sugar,8_ <= 0
c100: 1 x_machine1,salt,8_ - 10 y_machine1,salt,8_ <= 0
c101: 1 x_machine2,salt,8_ - 10 y_machine2,salt,8_ <= 0
c102: 1 x_machine3,salt,8_ - 10 y_machine3,salt,8_ <= 0
c103: 1 x_machine1,pepper,8_ - 10 y_machine1,pepper,8_ <= 0
c104: 1 x_machine2,pepper,8_ - 10 y_machine2,pepper,8_ <= 0
c105: 1 x_machine3,pepper,8_ - 10 y_machine3,pepper,8_ <= 0
c106: 1 x_machine1,oil,8_ - 10 y_machine1,oil,8_ <= 0
c107: 1 x_machine2,oil,8_ - 10 y_machine2,oil,8_ <= 0
c108: 1 x_machine3,oil,8_ - 10 y_machine3,oil,8_ <= 0
c109: 1 x_machine1,sugar,9_ - 10 y_machine1,sugar,9_ <= 0
c110: 1 x_machine2,sugar,9_ - 10 y_machine2,sugar,9_ <= 0
c111: 1 x_machine3,sugar,9_ - 10 y_machine3,sugar,9_ <= 0
c112: 1 x_machine1,salt,9_ - 10 y_machine1,salt,9_ <= 0
c113: 1 x_machine2,salt,9_ - 10 y_machine2,salt,9_ <= 0
c114: 1 x_machine3,salt,9_ - 10 y_machine3,salt,9_ <= 0
c115: 1 x_machine1,pepper,9_ - 10 y_machine1,pepper,9_ <= 0
c116: 1 x_machine2,pepper,9_ - 10 y_machine2,pepper,9_ <= 0
c117: 1 x_machine3,pepper,9_ - 10 y_machine3,pepper,9_ <= 0
c118: 1 x_machine1,oil,9_ - 10 y_machine1,oil,9_ <= 0
c119: 1 x_machine2,oil,9_ - 10 y_machine2,oil,9_ <= 0
c120: 1 x_machine3,oil,9_ - 10 y_machine3,oil,9_ <= 0
c121: 1 x_machine1,sugar,10_ - 10 y_machine1,sugar,10_ <= 0
c122: 1 x_machine2,sugar,10_ - 10 y_machine2,sugar,10_ <= 0
c123: 1 x_machine3,sugar,10_ - 10 y_machine3,sugar,10_ <= 0
c124: 1 x_machine1,salt,10_ - 10 y_machine1,salt,10_ <= 0
c125: 1 x_machine2,salt,10_ - 10 y_machine2,salt,10_ <= 0
c126: 1 x_machine3,salt,10_ - 10 y_machine3,salt,10_ <= 0
c127: 1 x_machine1,pepper,10_ - 10 y_machine1,pepper,10_ <= 0
c128: 1 x_machine2,pepper,10_ - 10 y_machine2,pepper,10_ <= 0
c129: 1 x_machine3,pepper,10_ - 10 y_machine3,pepper,10_ <= 0
c130: 1 x_machine1,oil,10_ - 10 y_machine1,oil,10_ <= 0
c131: 1 x_machine2,oil,10_ - 10 y_machine2,oil,10_ <= 0
c132: 1 x_machine3,oil,10_ - 10 y_machine3,oil,10_ <= 0
c133: 1 x_machine1,sugar,11_ - 10 y_machine1,sugar,11_ <= 0
c134: 1 x_machine2,sugar,11_ - 10 y_machine2,sugar,11_ <= 0
c135: 1 x_machine3,sugar,11_ - 10 y_machine3,sugar,11_ <= 0
c136: 1 x_machine1,salt,11_ - 10 y_machine1,salt,11_ <= 0
c137: 1 x_machine2,salt,11_ - 10 y_machine2,salt,11_ <= 0
c138: 1 x_machine3,salt,11_ - 10 y_machine3,salt,11_ <= 0
c139: 1 x_machine1,pepper,11_ - 10 y_machine1,pepper,11_ <= 0
c140: 1 x_machine2,pepper,11_ - 10 y_machine2,pepper,11_ <= 0
c141: 1 x_machine3,pepper,11_ - 10 y_machine3,pepper,11_ <= 0
c142: 1 x_machine1,oil,11_ - 10 y_machine1,oil,11_ <= 0
c143: 1 x_machine2,oil,11_ - 10 y_machine2,oil,11_ <= 0
c144: 1 x_machine3,oil,11_ - 10 y_machine3,oil,11_ <= 0
c145: 1 x_machine1,sugar,12_ - 10 y_machine1,sugar,12_ <= 0
c146: 1 x_machine2,sugar,12_ - 10 y_machine2,sugar,12_ <= 0
c147: 1 x_machine3,sugar,12_ - 10 y_machine3,sugar,12_ <= 0
c148: 1 x_machine1,salt,12_ - 10 y_machine1,salt,12_ <= 0
c149: 1 x_machine2,salt,12_ - 10 y_machine2,salt,12_ <= 0
c150: 1 x_machine3,salt,12_ - 10 y_machine3,salt,12_ <= 0
c151: 1 x_machine1,pepper,12_ - 10 y_machine1,pepper,12_ <= 0
c152: 1 x_machine2,pepper,12_ - 10 y_machine2,pepper,12_ <= 0
c153: 1 x_machine3,pepper,12_ - 10 y_machine3,pepper,12_ <= 0
c154: 1 x_machine1,oil,12_ - 10 y_machine1,oil,12_ <= 0
c155: 1 x_machine2,oil,12_ - 10 y_machine2,oil,12_ <= 0
c156: 1 x_machine3,oil,12_ - 10 y_machine3,oil,12_ <= 0
c157: 1 x_machine1,sugar,1_ + 1 x_machine1,salt,1_ + 1 x_machine1,pepper,1_ + 1 x_machine1,oil,1_ <= 15
c158: 1 x_machine2,sugar,1_ + 1 x_machine2,salt,1_ + 1 x_machine2,pepper,1_ + 1 x_machine2,oil,1_ <= 15
c159: 1 x_machine3,sugar,1_ + 1 x_machine3,salt,1_ + 1 x_machine3,pepper,1_ + 1 x_machine3,oil,1_ <= 15
c160: 1 x_machine1,sugar,2_ + 1 x_machine1,salt,2_ + 1 x_machine1,pepper,2_ + 1 x_machine1,oil,2_ <= 15
c161: 1 x_machine2,sugar,2_ + 1 x_machine2,salt,2_ + 1 x_machine2,pepper,2_ + 1 x_machine2,oil,2_ <= 15
c162: 1 x_machine3,sugar,2_ + 1 x_machine3,salt,2_ + 1 x_machine3,pepper,2_ + 1 x_machine3,oil,2_ <= 15
c163: 1 x_machine1,sugar,3_ + 1 x_machine1,salt,3_ + 1 x_machine1,pepper,3_ + 1 x_machine1,oil,3_ <= 15
c164: 1 x_machine2,sugar,3_ + 1 x_machine2,salt,3_ + 1 x_machine2,pepper,3_ + 1 x_machine2,oil,3_ <= 15
c165: 1 x_machine3,sugar,3_ + 1 x_machine3,salt,3_ + 1 x_machine3,pepper,3_ + 1 x_machine3,oil,3_ <= 15
c166: 1 x_machine1,sugar,4_ + 1 x_machine1,salt,4_ + 1 x_machine1,pepper,4_ + 1 x_machine1,oil,4_ <= 15
c167: 1 x_machine2,sugar,4_ + 1 x_machine2,salt,4_ + 1 x_machine2,pepper,4_ + 1 x_machine2,oil,4_ <= 15
c168: 1 x_machine3,sugar,4_ + 1 x_machine3,salt,4_ + 1 x_machine3,pepper,4_ + 1 x_machine3,oil,4_ <= 15
c169: 1 x_machine1,sugar,5_ + 1 x_machine1,salt,5_ + 1 x_machine1,pepper,5_ + 1 x_machine1,oil,5_ <= 15
c170: 1 x_machine2,sugar,5_ + 1 x_machine2,salt,5_ + 1 x_machine2,pepper,5_ + 1 x_machine2,oil,5_ <= 15
c171: 1 x_machine3,sugar,5_ + 1 x_machine3,salt,5_ + 1 x_machine3,pepper,5_ + 1 x_machine3,oil,5_ <= 15
c172: 1 x_machine1,sugar,6_ + 1 x_machine1,salt,6_ + 1 x_machine1,pepper,6_ + 1 x_machine1,oil,6_ <= 15
c173: 1 x_machine2,sugar,6_ + 1 x_machine2,salt,6_ + 1 x_machine2,pepper,6_ + 1 x_machine2,oil,6_ <= 15
c174: 1 x_machine3,sugar,6_ + 1 x_machine3,salt,6_ + 1 x_machine3,pepper,6_ + 1 x_machine3,oil,6_ <= 15
c175: 1 x_machine1,sugar,7_ + 1 x_machine1,salt,7_ + 1 x_machine1,pepper,7_ + 1 x_machine1,oil,7_ <= 15
c176: 1 x_machine2,sugar,7_ + 1 x_machine2,salt,7_ + 1 x_machine2,pepper,7_ + 1 x_machine2,oil,7_ <= 15
c177: 1 x_machine3,sugar,7_ + 1 x_machine3,salt,7_ + 1 x_machine3,pepper,7_ + 1 x_machine3,oil,7_ <= 15
c178: 1 x_machine1,sugar,8_ + 1 x_machine1,salt,8_ + 1 x_machine1,pepper,8_ + 1 x_machine1,oil,8_ <= 15
c179: 1 x_machine2,sugar,8_ + 1 x_machine2,salt,8_ + 1 x_machine2,pepper,8_ + 1 x_machine2,oil,8_ <= 15
c180: 1 x_machine3,sugar,8_ + 1 x_machine3,salt,8_ + 1 x_machine3,pepper,8_ + 1 x_machine3,oil,8_ <= 15
c181: 1 x_machine1,sugar,9_ + 1 x_machine1,salt,9_ + 1 x_machine1,pepper,9_ + 1 x_machine1,oil,9_ <= 15
c182: 1 x_machine2,sugar,9_ + 1 x_machine2,salt,9_ + 1 x_machine2,pepper,9_ + 1 x_machine2,oil,9_ <= 15
c183: 1 x_machine3,sugar,9_ + 1 x_machine3,salt,9_ + 1 x_machine3,pepper,9_ + 1 x_machine3,oil,9_ <= 15
c184: 1 x_machine1,sugar,10_ + 1 x_machine1,salt,10_ + 1 x_machine1,pepper,10_ + 1 x_machine1,oil,10_ <= 15
c185: 1 x_machine2,sugar,10_ + 1 x_machine2,salt,10_ + 1 x_machine2,pepper,10_ + 1 x_machine2,oil,10_ <= 15
c186: 1 x_machine3,sugar,10_ + 1 x_machine3,salt,10_ + 1 x_machine3,pepper,10_ + 1 x_machine3,oil,10_ <= 15
c187: 1 x_machine1,sugar,11_ + 1 x_machine1,salt,11_ + 1 x_machine1,pepper,11_ + 1 x_machine1,oil,11_ <= 15
c188: 1 x_machine2,sugar,11_ + 1 x_machine2,salt,11_ + 1 x_machine2,pepper,11_ + 1 x_machine2,oil,11_ <= 15
c189: 1 x_machine3,sugar,11_ + 1 x_machine3,salt,11_ + 1 x_machine3,pepper,11_ + 1 x_machine3,oil,11_ <= 15
c190: 1 x_machine1,sugar,12_ + 1 x_machine1,salt,12_ + 1 x_machine1,pepper,12_ + 1 x_machine1,oil,12_ <= 15
c191: 1 x_machine2,sugar,12_ + 1 x_machine2,salt,12_ + 1 x_machine2,pepper,12_ + 1 x_machine2,oil,12_ <= 15
c192: 1 x_machine3,sugar,12_ + 1 x_machine3,salt,12_ + 1 x_machine3,pepper,12_ + 1 x_machine3,oil,12_ <= 15
c1: -1 x_machine1,sugar,1_ - 1 x_machine2,sugar,1_ - 1 x_machine3,sugar,1_ + 1 s_sugar,1_ = 3
c2: -1 x_machine1,salt,1_ - 1 x_machine2,salt,1_ - 1 x_machine3,salt,1_ + 1 s_salt,1_ = -2
c3: -1 x_machine1,pepper,1_ - 1 x_machine2,pepper,1_ - 1 x_machine3,pepper,1_ + 1 s_pepper,1_ = 3
c4: -1 x_machine1,oil,1_ - 1 x_machine2,oil,1_ - 1 x_machine3,oil,1_ + 1 s_oil,1_ = 3
c5: -1 x_machine1,sugar,2_ - 1 x_machine2,sugar,2_ - 1 x_machine3,sugar,2_ - 1 s_sugar,1_ + 1 s_sugar,2_ = 0
c6: -1 x_machine1,salt,2_ - 1 x_machine2,salt,2_ - 1 x_machine3,salt,2_ - 1 s_salt,1_ + 1 s_salt,2_ = -4
c7: -1 x_machine1,pepper,2_ - 1 x_machine2,pepper,2_ - 1 x_machine3,pepper,2_ - 1 s_pepper,1_ + 1 s_pepper,2_ = 0
c8: -1 x_machine1,oil,2_ - 1 x_machine2,oil,2_ - 1 x_machine3,oil,2_ - 1 s_oil,1_ + 1 s_oil,2_ = 0
c9: -1 x_machine1,sugar,3_ - 1 x_machine2,sugar,3_ - 1 x_machine3,sugar,3_ - 1 s_sugar,2_ + 1 s_sugar,3_ = -6
c10: -1 x_machine1,salt,3_ - 1 x_machine2,salt,3_ - 1 x_machine3,salt,3_ - 1 s_salt,2_ + 1 s_salt,3_ = -5
c11: -1 x_machine1,pepper,3_ - 1 x_machine2,pepper,3_ - 1 x_machine3,pepper,3_ - 1 s_pepper,2_ + 1 s_pepper,3_ = 0
c12: -1 x_machine1,oil,3_ - 1 x_machine2,oil,3_ - 1 x_machine3,oil,3_ - 1 s_oil,2_ + 1 s_oil,3_ = 0
c13: -1 x_machine1,sugar,4_ - 1 x_machine2,sugar,4_ - 1 x_machine3,sugar,4_ - 1 s_sugar,3_ + 1 s_sugar,4_ = 0
c14: -1 x_machine1,salt,4_ - 1 x_machine2,salt,4_ - 1 x_machine3,salt,4_ - 1 s_salt,3_ + 1 s_salt,4_ = 0
c15: -1 x_machine1,pepper,4_ - 1 x_machine2,pepper,4_ - 1 x_machine3,pepper,4_ - 1 s_pepper,3_ + 1 s_pepper,4_ = -6
c16: -1 x_machine1,oil,4_ - 1 x_machine2,oil,4_ - 1 x_machine3,oil,4_ - 1 s_oil,3_ + 1 s_oil,4_ = 0
c17: -1 x_machine1,sugar,5_ - 1 x_machine2,sugar,5_ - 1 x_machine3,sugar,5_ - 1 s_sugar,4_ + 1 s_sugar,5_ = 0
c18: -1 x_machine1,salt,5_ - 1 x_machine2,salt,5_ - 1 x_machine3,salt,5_ - 1 s_salt,4_ + 1 s_salt,5_ = 0
c19: -1 x_machine1,pepper,5_ - 1 x_machine2,pepper,5_ - 1 x_machine3,pepper,5_ - 1 s_pepper,4_ + 1 s_pepper,5_ = 0
c20: -1 x_machine1,oil,5_ - 1 x_machine2,oil,5_ - 1 x_machine3,oil,5_ - 1 s_oil,4_ + 1 s_oil,5_ = -4
c21: -1 x_machine1,sugar,6_ - 1 x_machine2,sugar,6_ - 1 x_machine3,sugar,6_ - 1 s_sugar,5_ + 1 s_sugar,6_ = -3
c22: -1 x_machine1,salt,6_ - 1 x_machine2,salt,6_ - 1 x_machine3,salt,6_ - 1 s_salt,5_ + 1 s_salt,6_ = 0
c23: -1 x_machine1,pepper,6_ - 1 x_machine2,pepper,6_ - 1 x_machine3,pepper,6_ - 1 s_pepper,5_ + 1 s_pepper,6_ = -3
c24: -1 x_machine1,oil,6_ - 1 x_machine2,oil,6_ - 1 x_machine3,oil,6_ - 1 s_oil,5_ + 1 s_oil,6_ = 0
c25: -1 x_machine1,sugar,7_ - 1 x_machine2,sugar,7_ - 1 x_machine3,sugar,7_ - 1 s_sugar,6_ + 1 s_sugar,7_ = 0
c26: -1 x_machine1,salt,7_ - 1 x_machine2,salt,7_ - 1 x_machine3,salt,7_ - 1 s_salt,6_ + 1 s_salt,7_ = 0
c27: -1 x_machine1,pepper,7_ - 1 x_machine2,pepper,7_ - 1 x_machine3,pepper,7_ - 1 s_pepper,6_ + 1 s_pepper,7_ = -5
c28: -1 x_machine1,oil,7_ - 1 x_machine2,oil,7_ - 1 x_machine3,oil,7_ - 1 s_oil,6_ + 1 s_oil,7_ = 0
c29: -1 x_machine1,sugar,8_ - 1 x_machine2,sugar,8_ - 1 x_machine3,sugar,8_ - 1 s_sugar,7_ + 1 s_sugar,8_ = 0
c30: -1 x_machine1,salt,8_ - 1 x_machine2,salt,8_ - 1 x_machine3,salt,8_ - 1 s_salt,7_ + 1 s_salt,8_ = -3
c31: -1 x_machine1,pepper,8_ - 1 x_machine2,pepper,8_ - 1 x_machine3,pepper,8_ - 1 s_pepper,7_ + 1 s_pepper,8_ = -5
c32: -1 x_machine1,oil,8_ - 1 x_machine2,oil,8_ - 1 x_machine3,oil,8_ - 1 s_oil,7_ + 1 s_oil,8_ = 0
c33: -1 x_machine1,sugar,9_ - 1 x_machine2,sugar,9_ - 1 x_machine3,sugar,9_ - 1 s_sugar,8_ + 1 s_sugar,9_ = 0
c34: -1 x_machine1,salt,9_ - 1 x_machine2,salt,9_ - 1 x_machine3,salt,9_ - 1 s_salt,8_ + 1 s_salt,9_ = -6
c35: -1 x_machine1,pepper,9_ - 1 x_machine2,pepper,9_ - 1 x_machine3,pepper,9_ - 1 s_pepper,8_ + 1 s_pepper,9_ = 0
c36: -1 x_machine1,oil,9_ - 1 x_machine2,oil,9_ - 1 x_machine3,oil,9_ - 1 s_oil,8_ + 1 s_oil,9_ = -6
c37: -1 x_machine1,sugar,10_ - 1 x_machine2,sugar,10_ - 1 x_machine3,sugar,10_ - 1 s_sugar,9_ + 1 s_sugar,10_ = 0
c38: -1 x_machine1,salt,10_ - 1 x_machine2,salt,10_ - 1 x_machine3,salt,10_ - 1 s_salt,9_ + 1 s_salt,10_ = 0
c39: -1 x_machine1,pepper,10_ - 1 x_machine2,pepper,10_ - 1 x_machine3,pepper,10_ - 1 s_pepper,9_ + 1 s_pepper,10_ = -4
c40: -1 x_machine1,oil,10_ - 1 x_machine2,oil,10_ - 1 x_machine3,oil,10_ - 1 s_oil,9_ + 1 s_oil,10_ = 0
c41: -1 x_machine1,sugar,11_ - 1 x_machine2,sugar,11_ - 1 x_machine3,sugar,11_ - 1 s_sugar,10_ + 1 s_sugar,11_ = -3
c42: -1 x_machine1,salt,11_ - 1 x_machine2,salt,11_ - 1 x_machine3,salt,11_ - 1 s_salt,10_ + 1 s_salt,11_ = -5
c43: -1 x_machine1,pepper,11_ - 1 x_machine2,pepper,11_ - 1 x_machine3,pepper,11_ - 1 s_pepper,10_ + 1 s_pepper,11_ = 0
c44: -1 x_machine1,oil,11_ - 1 x_machine2,oil,11_ - 1 x_machine3,oil,11_ - 1 s_oil,10_ + 1 s_oil,11_ = 0
c45: -1 x_machine1,sugar,12_ - 1 x_machine2,sugar,12_ - 1 x_machine3,sugar,12_ - 1 s_sugar,11_ + 1 s_sugar,12_ = 0
c46: -1 x_machine1,salt,12_ - 1 x_machine2,salt,12_ - 1 x_machine3,salt,12_ - 1 s_salt,11_ + 1 s_salt,12_ = 0
c47: -1 x_machine1,pepper,12_ - 1 x_machine2,pepper,12_ - 1 x_machine3,pepper,12_ - 1 s_pepper,11_ + 1 s_pepper,12_ = -5
c48: -1 x_machine1,oil,12_ - 1 x_machine2,oil,12_ - 1 x_machine3,oil,12_ - 1 s_oil,11_ + 1 s_oil,12_ = 0
c49: 1 s_sugar,12_ = 3
c50: 1 s_salt,12_ = 2
c51: 1 s_pepper,12_ = 3
c52: 1 s_oil,12_ = 3
Bounds
x_machine1,sugar,1_ >= 0
x_machine2,sugar,1_ >= 0
x_machine3,sugar,1_ >= 0
x_machine1,salt,1_ >= 0
x_machine2,salt,1_ >= 0
x_machine3,salt,1_ >= 0
x_machine1,pepper,1_ >= 0
x_machine2,pepper,1_ >= 0
x_machine3,pepper,1_ >= 0
x_machine1,oil,1_ >= 0
x_machine2,oil,1_ >= 0
x_machine3,oil,1_ >= 0
x_machine1,sugar,2_ >= 0
x_machine2,sugar,2_ >= 0
x_machine3,sugar,2_ >= 0
x_machine1,salt,2_ >= 0
x_machine2,salt,2_ >= 0
x_machine3,salt,2_ >= 0
x_machine1,pepper,2_ >= 0
x_machine2,pepper,2_ >= 0
x_machine3,pepper,2_ >= 0
x_machine1,oil,2_ >= 0
x_machine2,oil,2_ >= 0
x_machine3,oil,2_ >= 0
x_machine1,sugar,3_ >= 0
x_machine2,sugar,3_ >= 0
x_machine3,sugar,3_ >= 0
x_machine1,salt,3_ >= 0
x_machine2,salt,3_ >= 0
x_machine3,salt,3_ >= 0
x_machine1,pepper,3_ >= 0
x_machine2,pepper,3_ >= 0
x_machine3,pepper,3_ >= 0
x_machine1,oil,3_ >= 0
x_machine2,oil,3_ >= 0
x_machine3,oil,3_ >= 0
x_machine1,sugar,4_ >= 0
x_machine2,sugar,4_ >= 0
x_machine3,sugar,4_ >= 0
x_machine1,salt,4_ >= 0
x_machine2,salt,4_ >= 0
x_machine3,salt,4_ >= 0
x_machine1,pepper,4_ >= 0
x_machine2,pepper,4_ >= 0
x_machine3,pepper,4_ >= 0
x_machine1,oil,4_ >= 0
x_machine2,oil,4_ >= 0
x_machine3,oil,4_ >= 0
x_machine1,sugar,5_ >= 0
x_machine2,sugar,5_ >= 0
x_machine3,sugar,5_ >= 0
x_machine1,salt,5_ >= 0
x_machine2,salt,5_ >= 0
x_machine3,salt,5_ >= 0
x_machine1,pepper,5_ >= 0
x_machine2,pepper,5_ >= 0
x_machine3,pepper,5_ >= 0
x_machine1,oil,5_ >= 0
x_machine2,oil,5_ >= 0
x_machine3,oil,5_ >= 0
x_machine1,sugar,6_ >= 0
x_machine2,sugar,6_ >= 0
x_machine3,sugar,6_ >= 0
x_machine1,salt,6_ >= 0
x_machine2,salt,6_ >= 0
x_machine3,salt,6_ >= 0
x_machine1,pepper,6_ >= 0
x_machine2,pepper,6_ >= 0
x_machine3,pepper,6_ >= 0
x_machine1,oil,6_ >= 0
x_machine2,oil,6_ >= 0
x_machine3,oil,6_ >= 0
x_machine1,sugar,7_ >= 0
x_machine2,sugar,7_ >= 0
x_machine3,sugar,7_ >= 0
x_machine1,salt,7_ >= 0
x_machine2,salt,7_ >= 0
x_machine3,salt,7_ >= 0
x_machine1,pepper,7_ >= 0
x_machine2,pepper,7_ >= 0
x_machine3,pepper,7_ >= 0
x_machine1,oil,7_ >= 0
x_machine2,oil,7_ >= 0
x_machine3,oil,7_ >= 0
x_machine1,sugar,8_ >= 0
x_machine2,sugar,8_ >= 0
x_machine3,sugar,8_ >= 0
x_machine1,salt,8_ >= 0
x_machine2,salt,8_ >= 0
x_machine3,salt,8_ >= 0
x_machine1,pepper,8_ >= 0
x_machine2,pepper,8_ >= 0
x_machine3,pepper,8_ >= 0
x_machine1,oil,8_ >= 0
x_machine2,oil,8_ >= 0
x_machine3,oil,8_ >= 0
x_machine1,sugar,9_ >= 0
x_machine2,sugar,9_ >= 0
x_machine3,sugar,9_ >= 0
x_machine1,salt,9_ >= 0
x_machine2,salt,9_ >= 0
x_machine3,salt,9_ >= 0
x_machine1,pepper,9_ >= 0
x_machine2,pepper,9_ >= 0
x_machine3,pepper,9_ >= 0
x_machine1,oil,9_ >= 0
x_machine2,oil,9_ >= 0
x_machine3,oil,9_ >= 0
x_machine1,sugar,10_ >= 0
x_machine2,sugar,10_ >= 0
x_machine3,sugar,10_ >= 0
x_machine1,salt,10_ >= 0
x_machine2,salt,10_ >= 0
x_machine3,salt,10_ >= 0
x_machine1,pepper,10_ >= 0
x_machine2,pepper,10_ >= 0
x_machine3,pepper,10_ >= 0
x_machine1,oil,10_ >= 0
x_machine2,oil,10_ >= 0
x_machine3,oil,10_ >= 0
x_machine1,sugar,11_ >= 0
x_machine2,sugar,11_ >= 0
x_machine3,sugar,11_ >= 0
x_machine1,salt,11_ >= 0
x_machine2,salt,11_ >= 0
x_machine3,salt,11_ >= 0
x_machine1,pepper,11_ >= 0
x_machine2,pepper,11_ >= 0
x_machine3,pepper,11_ >= 0
x_machine1,oil,11_ >= 0
x_machine2,oil,11_ >= 0
x_machine3,oil,11_ >= 0
x_machine1,sugar,12_ >= 0
x_machine2,sugar,12_ >= 0
x_machine3,sugar,12_ >= 0
x_machine1,salt,12_ >= 0
x_machine2,salt,12_ >= 0
x_machine3,salt,12_ >= 0
x_machine1,pepper,12_ >= 0
x_machine2,pepper,12_ >= 0
x_machine3,pepper,12_ >= 0
x_machine1,oil,12_ >= 0
x_machine2,oil,12_ >= 0
x_machine3,oil,12_ >= 0
s_sugar,1_ >= 0
s_salt,1_ >= 0
s_pepper,1_ >= 0
s_oil,1_ >= 0
s_sugar,2_ >= 0
s_salt,2_ >= 0
s_pepper,2_ >= 0
s_oil,2_ >= 0
s_sugar,3_ >= 0
s_salt,3_ >= 0
s_pepper,3_ >= 0
s_oil,3_ >= 0
s_sugar,4_ >= 0
s_salt,4_ >= 0
s_pepper,4_ >= 0
s_oil,4_ >= 0
s_sugar,5_ >= 0
s_salt,5_ >= 0
s_pepper,5_ >= 0
s_oil,5_ >= 0
s_sugar,6_ >= 0
s_salt,6_ >= 0
s_pepper,6_ >= 0
s_oil,6_ >= 0
s_sugar,7_ >= 0
s_salt,7_ >= 0
s_pepper,7_ >= 0
s_oil,7_ >= 0
s_sugar,8_ >= 0
s_salt,8_ >= 0
s_pepper,8_ >= 0
s_oil,8_ >= 0
s_sugar,9_ >= 0
s_salt,9_ >= 0
s_pepper,9_ >= 0
s_oil,9_ >= 0
s_sugar,10_ >= 0
s_salt,10_ >= 0
s_pepper,10_ >= 0
s_oil,10_ >= 0
s_sugar,11_ >= 0
s_salt,11_ >= 0
s_pepper,11_ >= 0
s_oil,11_ >= 0
s_sugar,12_ >= 0
s_salt,12_ >= 0
s_pepper,12_ >= 0
s_oil,12_ >= 0
Binary
y_machine1,sugar,1_
y_machine2,sugar,1_
y_machine3,sugar,1_
y_machine1,salt,1_
y_machine2,salt,1_
y_machine3,salt,1_
y_machine1,pepper,1_
y_machine2,pepper,1_
y_machine3,pepper,1_
y_machine1,oil,1_
y_machine2,oil,1_
y_machine3,oil,1_
y_machine1,sugar,2_
y_machine2,sugar,2_
y_machine3,sugar,2_
y_machine1,salt,2_
y_machine2,salt,2_
y_machine3,salt,2_
y_machine1,pepper,2_
y_machine2,pepper,2_
y_machine3,pepper,2_
y_machine1,oil,2_
y_machine2,oil,2_
y_machine3,oil,2_
y_machine1,sugar,3_
y_machine2,sugar,3_
y_machine3,sugar,3_
y_machine1,salt,3_
y_machine2,salt,3_
y_machine3,salt,3_
y_machine1,pepper,3_
y_machine2,pepper,3_
y_machine3,pepper,3_
y_machine1,oil,3_
y_machine2,oil,3_
y_machine3,oil,3_
y_machine1,sugar,4_
y_machine2,sugar,4_
y_machine3,sugar,4_
y_machine1,salt,4_
y_machine2,salt,4_
y_machine3,salt,4_
y_machine1,pepper,4_
y_machine2,pepper,4_
y_machine3,pepper,4_
y_machine1,oil,4_
y_machine2,oil,4_
y_machine3,oil,4_
y_machine1,sugar,5_
y_machine2,sugar,5_
y_machine3,sugar,5_
y_machine1,salt,5_
y_machine2,salt,5_
y_machine3,salt,5_
y_machine1,pepper,5_
y_machine2,pepper,5_
y_machine3,pepper,5_
y_machine1,oil,5_
y_machine2,oil,5_
y_machine3,oil,5_
y_machine1,sugar,6_
y_machine2,sugar,6_
y_machine3,sugar,6_
y_machine1,salt,6_
y_machine2,salt,6_
y_machine3,salt,6_
y_machine1,pepper,6_
y_machine2,pepper,6_
y_machine3,pepper,6_
y_machine1,oil,6_
y_machine2,oil,6_
y_machine3,oil,6_
y_machine1,sugar,7_
y_machine2,sugar,7_
y_machine3,sugar,7_
y_machine1,salt,7_
y_machine2,salt,7_
y_machine3,salt,7_
y_machine1,pepper,7_
y_machine2,pepper,7_
y_machine3,pepper,7_
y_machine1,oil,7_
y_machine2,oil,7_
y_machine3,oil,7_
y_machine1,sugar,8_
y_machine2,sugar,8_
y_machine3,sugar,8_
y_machine1,salt,8_
y_machine2,salt,8_
y_machine3,salt,8_
y_machine1,pepper,8_
y_machine2,pepper,8_
y_machine3,pepper,8_
y_machine1,oil,8_
y_machine2,oil,8_
y_machine3,oil,8_
y_machine1,sugar,9_
y_machine2,sugar,9_
y_machine3,sugar,9_
y_machine1,salt,9_
y_machine2,salt,9_
y_machine3,salt,9_
y_machine1,pepper,9_
y_machine2,pepper,9_
y_machine3,pepper,9_
y_machine1,oil,9_
y_machine2,oil,9_
y_machine3,oil,9_
y_machine1,sugar,10_
y_machine2,sugar,10_
y_machine3,sugar,10_
y_machine1,salt,10_
y_machine2,salt,10_
y_machine3,salt,10_
y_machine1,pepper,10_
y_machine2,pepper,10_
y_machine3,pepper,10_
y_machine1,oil,10_
y_machine2,oil,10_
y_machine3,oil,10_
y_machine1,sugar,11_
y_machine2,sugar,11_
y_machine3,sugar,11_
y_machine1,salt,11_
y_machine2,salt,11_
y_machine3,salt,11_
y_machine1,pepper,11_
y_machine2,pepper,11_
y_machine3,pepper,11_
y_machine1,oil,11_
y_machine2,oil,11_
y_machine3,oil,11_
y_machine1,sugar,12_
y_machine2,sugar,12_
y_machine3,sugar,12_
y_machine1,salt,12_
y_machine2,salt,12_
y_machine3,salt,12_
y_machine1,pepper,12_
y_machine2,pepper,12_
y_machine3,pepper,12_
y_machine1,oil,12_
y_machine2,oil,12_
y_machine3,oil,12_
End
